language Essence 1.3

letting blksize_delta be
        function(1 --> 8, 2 --> 8, 3 --> 8, 4 --> 8, 5 --> 8, 6 --> 8, 7 --> 8, 8 --> 8, 9 --> 8, 10 --> 8, 11 --> 8,
                 12 --> 8, 13 --> 10, 14 --> 8, 15 --> 8, 16 --> 8, 17 --> 8, 18 --> 8, 19 --> 8, 20 --> 9, 21 --> 8,
                 22 --> 8, 23 --> 8, 24 --> 10, 25 --> 8, 26 --> 10)
letting maxcars be
        function(1 --> 9, 2 --> 9, 3 --> 10, 4 --> 9, 5 --> 9, 6 --> 9, 7 --> 9, 8 --> 9, 9 --> 9, 10 --> 9, 11 --> 9,
                 12 --> 9, 13 --> 9, 14 --> 9, 15 --> 9, 16 --> 9, 17 --> 9, 18 --> 9, 19 --> 10, 20 --> 9, 21 --> 9,
                 22 --> 10, 23 --> 10, 24 --> 9, 25 --> 9, 26 --> 9)
letting n_cars be 197
letting n_classes be 27
letting n_options be 26
letting quantity be
        function(1 --> 7, 2 --> 7, 3 --> 7, 4 --> 7, 5 --> 7, 6 --> 7, 7 --> 7, 8 --> 12, 9 --> 7, 10 --> 7, 11 --> 7,
                 12 --> 7, 13 --> 7, 14 --> 7, 15 --> 7, 16 --> 7, 17 --> 7, 18 --> 7, 19 --> 7, 20 --> 8, 21 --> 7,
                 22 --> 7, 23 --> 7, 24 --> 7, 25 --> 7, 26 --> 9, 27 --> 7)
letting usage be
        relation((1, 17), (1, 26), (2, 16), (2, 18), (2, 21), (3, 2), (3, 19), (3, 20), (4, 8), (4, 11), (4, 23),
                 (5, 9), (5, 21), (6, 8), (6, 14), (6, 15), (6, 19), (7, 6), (7, 13), (7, 15), (7, 17), (7, 19),
                 (7, 22), (8, 1), (8, 10), (8, 16), (9, 4), (9, 12), (10, 2), (10, 5), (10, 10), (10, 15), (10, 21),
                 (11, 1), (12, 15), (13, 8), (13, 10), (13, 25), (14, 9), (15, 12), (15, 14), (16, 4), (17, 13),
                 (17, 16), (17, 18), (17, 22), (18, 5), (18, 20), (18, 22), (19, 8), (19, 9), (20, 15), (20, 24),
                 (21, 5), (21, 10), (21, 11), (21, 15), (21, 19), (22, 14), (23, 4), (23, 7), (23, 20), (23, 25),
                 (24, 2), (24, 15), (24, 20), (25, 25), (26, 5), (26, 9), (26, 13), (26, 26), (27, 1), (27, 3),
                 (27, 13))
$ Visualisation for usage
$  1 17
$  1 26
$  2 16
$  2 18
$  2 21
$  3  2
$  3 19
$  3 20
$  4  8
$  4 11
$  4 23
$  5  9
$  5 21
$  6  8
$  6 14
$  6 15
$  6 19
$  7  6
$  7 13
$  7 15
$  7 17
$  7 19
$  7 22
$  8  1
$  8 10
$  8 16
$  9  4
$  9 12
$ 10  2
$ 10  5
$ 10 10
$ 10 15
$ 10 21
$ 11  1
$ 12 15
$ 13  8
$ 13 10
$ 13 25
$ 14  9
$ 15 12
$ 15 14
$ 16  4
$ 17 13
$ 17 16
$ 17 18
$ 17 22
$ 18  5
$ 18 20
$ 18 22
$ 19  8
$ 19  9
$ 20 15
$ 20 24
$ 21  5
$ 21 10
$ 21 11
$ 21 15
$ 21 19
$ 22 14
$ 23  4
$ 23  7
$ 23 20
$ 23 25
$ 24  2
$ 24 15
$ 24 20
$ 25 25
$ 26  5
$ 26  9
$ 26 13
$ 26 26
$ 27  1
$ 27  3
$ 27 13

